<number of tasks>
50

<cycle time>
1000

<order strength>
0.598


<task times>
1 585
2 492
3 625
4 490
5 504
6 575
7 584
8 515
9 397
10 515
11 591
12 421
13 644
14 327
15 563
16 474
17 708
18 480
19 516
20 486
21 319
22 451
23 561
24 781
25 673
26 517
27 569
28 587
29 567
30 342
31 307
32 466
33 361
34 614
35 488
36 542
37 661
38 495
39 580
40 455
41 429
42 760
43 416
44 443
45 549
46 367
47 621
48 403
49 474
50 299

<precedence relations>
1,28
2,14
3,14
4,14
5,9
5,10
5,11
5,12
6,7
6,8
6,9
6,11
6,13
6,14
7,39
8,28
9,28
10,14
11,15
11,16
11,17
11,30
12,13
12,14
12,15
12,16
12,17
13,39
14,18
14,19
14,20
14,21
14,22
15,23
15,32
16,22
17,22
18,23
18,24
18,25
18,26
19,23
19,24
19,26
20,30
20,32
20,41
21,23
22,23
22,29
23,28
24,27
24,28
24,29
25,27
25,29
25,31
26,30
26,39
26,40
26,41
27,39
28,31
28,33
28,34
28,35
28,36
28,37
28,38
29,32
31,39
32,39
33,40
33,48
34,47
36,40
36,41
37,48
38,40
38,49
39,42
39,43
39,44
39,45
41,46
41,49
42,48
44,47
44,48
45,49
49,50

<end>
